c is-sat
p cnf 12 78
-3 -7 11 0
-12 -2 6 0
9 -11 12 0
-11 -1 -8 0
-11 9 -4 0
-5 -9 11 0
5 1 9 0
-2 -7 -5 0
11 -6 -10 0
-2 -3 -7 0
-2 -10 3 0
-3 -5 8 0
-10 3 -8 0
-5 -1 -11 0
10 -9 -5 0
-5 6 -10 0
-1 -4 -5 0
-1 11 4 0
-6 -4 10 0
7 5 -6 0
-4 6 -2 0
-8 -7 9 0
-5 -4 1 0
-1 8 -9 0
-7 -1 -12 0
6 -10 -3 0
-9 6 -7 0
2 9 -7 0
-1 3 -12 0
-4 -9 -7 0
6 -9 -1 0
6 10 9 0
9 11 -7 0
7 -3 -4 0
-11 3 5 0
-3 -1 -5 0
-9 -7 12 0
12 4 -5 0
-9 -2 -7 0
12 1 -5 0
-2 -11 -8 0
9 12 6 0
5 -1 -6 0
-3 7 -4 0
-5 1 -2 0
-10 -3 -4 0
-6 -9 -2 0
-4 -5 -1 0
-5 -12 -4 0
-2 -12 -6 0
-2 -8 -5 0
-5 1 -6 0
2 -10 -8 0
6 -3 -5 0
-2 9 10 0
-1 -12 6 0
-11 -4 -7 0
7 -11 -12 0
4 1 -11 0
-9 -4 -12 0
-1 7 -5 0
10 -6 -9 0
-11 -3 -4 0
6 -8 -11 0
-11 -10 5 0
-10 -2 1 0
4 -2 1 0
-6 -12 5 0
8 9 -6 0
8 3 10 0
-2 -1 -6 0
-10 4 -1 0
7 -10 -5 0
6 -11 5 0
-5 -12 -11 0
-7 -4 9 0
-1 -3 -7 0
-12 9 -1 0
